
******************************************************************************
This program contains Ipopt, a library for large-scale nonlinear optimization.
 Ipopt is released as open source code under the Eclipse Public License (EPL).
         For more information visit https://github.com/coin-or/Ipopt
******************************************************************************

This is Ipopt version 3.14.19, running with linear solver MUMPS 5.8.1.

Number of nonzeros in equality constraint Jacobian...:     4389
Number of nonzeros in inequality constraint Jacobian.:        0
Number of nonzeros in Lagrangian Hessian.............:     1050

Total number of variables............................:     1287
                     variables with only lower bounds:        0
                variables with lower and upper bounds:      457
                     variables with only upper bounds:        0
Total number of equality constraints.................:     1274
Total number of inequality constraints...............:        0
        inequality constraints with only lower bounds:        0
   inequality constraints with lower and upper bounds:        0
        inequality constraints with only upper bounds:        0

iter    objective    inf_pr   inf_du lg(mu)  ||d||  lg(rg) alpha_du alpha_pr  ls
   0  9.8482150e+00 9.90e+01 1.91e-04  -1.0 0.00e+00    -  0.00e+00 0.00e+00   0
   1  9.8543614e+00 8.84e-01 2.80e+01  -1.0 9.83e+01    -  3.35e-02 1.00e+00h  1
   2  9.8547444e+00 1.10e-02 6.97e-02  -1.0 7.43e-01    -  9.37e-01 1.00e+00h  1
   3  9.8637727e+00 7.72e-02 4.81e-01  -1.0 2.79e+00    -  6.22e-01 1.00e+00f  1
   4  9.9204210e+00 3.02e+00 3.70e-01  -1.0 3.78e+00    -  9.96e-01 7.31e-01f  1
   5  9.9386560e+00 2.04e-01 2.67e-03  -1.0 1.20e+00    -  1.00e+00 1.00e+00f  1
   6  9.9032953e+00 9.88e-02 8.20e-02  -1.7 4.30e-01    -  9.61e-01 1.00e+00h  1
   7  9.8654017e+00 7.62e-01 6.57e-03  -2.5 8.84e-01    -  9.92e-01 1.00e+00h  1
   8  9.8608909e+00 4.01e-01 4.60e-04  -2.5 1.28e+00    -  1.00e+00 1.00e+00h  1
   9  9.8608962e+00 8.78e-03 3.11e-06  -2.5 4.71e-01    -  1.00e+00 1.00e+00h  1
iter    objective    inf_pr   inf_du lg(mu)  ||d||  lg(rg) alpha_du alpha_pr  ls
  10  9.8597915e+00 1.38e-01 1.15e-02  -3.8 8.20e-01    -  8.82e-01 1.00e+00h  1
  11  9.8505360e+00 5.88e-03 3.63e-03  -3.8 3.82e+00    -  1.00e+00 1.00e+00h  1
  12  9.8511906e+00 1.28e-04 1.40e-05  -3.8 1.50e-01    -  1.00e+00 1.00e+00h  1
  13  9.8482765e+00 2.90e-04 4.14e-04  -5.7 1.37e+00    -  7.33e-01 9.70e-01h  1
  14  9.8481869e+00 1.97e-04 2.08e-03  -5.7 1.49e-01    -  1.00e+00 3.23e-01h  1
  15  9.8481941e+00 1.09e-04 6.43e-03  -5.7 9.05e-03    -  1.00e+00 4.49e-01h  1
  16  9.8482091e+00 4.04e-06 3.71e-09  -5.7 5.29e-03    -  1.00e+00 1.00e+00f  1
  17  9.8482049e+00 5.89e-07 2.03e-04  -8.6 2.23e-03    -  1.00e+00 8.88e-01h  1
  18  9.8482049e+00 2.94e-09 2.54e-12  -8.6 1.41e-04    -  1.00e+00 1.00e+00h  1

Number of Iterations....: 18

                                   (scaled)                 (unscaled)
Objective...............:   9.8482049286720166e+00    9.8482049286720166e+00
Dual infeasibility......:   2.5419861528208632e-12    2.5419861528208632e-12
Constraint violation....:   2.9419240377137678e-09    2.9419240377137678e-09
Variable bound violation:   0.0000000000000000e+00    0.0000000000000000e+00
Complementarity.........:   2.5097671287802895e-09    2.5097671287802895e-09
Overall NLP error.......:   2.9419240377137678e-09    2.9419240377137678e-09


Number of objective function evaluations             = 19
Number of objective gradient evaluations             = 19
Number of equality constraint evaluations            = 19
Number of inequality constraint evaluations          = 0
Number of equality constraint Jacobian evaluations   = 19
Number of inequality constraint Jacobian evaluations = 0
Number of Lagrangian Hessian evaluations             = 18
Total seconds in IPOPT                               = 0.083

EXIT: Optimal Solution Found.
